B=4;
D=1;
P=7;
S=7;
demands = [4 3 5 3 4 2 3 ];
capacities = [4 9 9 4 10 1 1 ];
dist_start = [6 6 1 3 7 3 1 ];
dist = [4 2 7 9 1 9 1 1 1 7 9 7 5 6 10 4 2 1 4 4 3 8 7 8 5 9 10 2 1 2 1 6 4 8 4 6 6 4 8 8 2 6 4 6 3 4 9 4 6 ];
